
  12    4
  10   10   10   10

   0   0   0   0   0   2 2 3 
   1  10  10  10  10   2 9 5 
   5  10  10  10  10   1 4 
   9  10  10  10  10   1 6 
   6  10  10  10  10   1 6 
  10  10  10  10  10   2 8 7 
   8  10  10  10  10   2 11 10 
   1  10  10  10  10   1 10 
   2  10  10  10  10   1 10 
   4  10  10  10  10   1 12
   1  10  10  10  10   1 12
   0   0   0   0   0   0 
